StudentsNr = 10;
InstructorsNr = 95;
DaysNr = 2;
SlotsPerDay = 15;
AvailabilitySlotsLenght = 5;
RoomNr = 1;
ProgrammNr = 2;
DegreeNr = 3;
RolesNr = 3;
CoursesNr = 0;
InstructorsProgramm = [{1}, {1}, {1}, {1}, {2}, {1}, {2}, {1, 2}, {1}, {2}, {1}, {1}, {2}, {2}, {2}, {1}, {1}, {1}, {2}, {1, 2}, {1, 2}, {2}, {1, 2}, {1}, {1, 2}, {2}, {1}, {1}, {1, 2}, {1, 2}, {1}, {1}, {1, 2}, {1}, {1, 2}, {1, 2}, {2}, {1, 2}, {1, 2}, {2}, {2}, {1}, {1}, {1}, {1}, {2}, {2}, {2}, {2}, {1}, {2}, {1}, {1}, {1}, {2}, {2}, {1}, {1, 2}, {2}, {1}, {2}, {2}, {2}, {2}, {1, 2}, {2}, {1, 2}, {2}, {1}, {2}, {1}, {1}, {1}, {1, 2}, {1, 2}, {1}, {1}, {2}, {1, 2}, {1, 2}, {1}, {1, 2}, {1}, {1}, {1}, {1, 2}, {2}, {1}, {2}, {2}, {1}, {1}, {2}, {2}, {2}];
InstructorRolesPerProgramm = [|{1, 4, 8, 9, 11, 16, 18, 23, 25, 28, 32, 33, 39, 42, 52, 53, 54, 57, 60, 65, 67, 72, 74, 80, 81, 82, 85, 92}, {8, 16, 18, 21, 25, 28, 29, 30, 33, 36, 42, 43, 50, 52, 53, 54, 57, 76, 80, 82, 86, 91, 92}, {1, 6, 16, 17, 18, 21, 28, 29, 32, 35, 38, 39, 42, 43, 50, 53, 54, 57, 60, 75, 81, 83, 85, 88, 91}|{5, 8, 15, 22, 23, 25, 33, 39, 49, 51, 61, 63, 65, 66, 67, 68, 74, 80, 82, 95}, {5, 7, 8, 10, 14, 19, 21, 22, 25, 29, 30, 33, 36, 40, 41, 48, 51, 55, 56, 61, 63, 68, 80, 82, 86, 90, 94}, {5, 15, 19, 21, 22, 29, 35, 37, 38, 39, 41, 48, 49, 55, 59, 66, 75, 94}|];
InstructorsAvailability = [|0, 1, 1, 0, 1, 0, |0, 0, 1, 1, 1, 0, |0, 1, 1, 1, 1, 1, |1, 0, 0, 0, 1, 1, |0, 0, 0, 0, 1, 1, |1, 1, 1, 1, 0, 1, |1, 0, 0, 0, 1, 1, |1, 0, 1, 1, 0, 1, |1, 1, 1, 1, 1, 1, |1, 1, 1, 1, 1, 1, |1, 1, 1, 1, 1, 1, |0, 0, 0, 1, 1, 0, |0, 1, 1, 1, 1, 1, |1, 1, 1, 1, 1, 1, |0, 0, 0, 1, 1, 1, |1, 1, 1, 1, 1, 0, |0, 0, 0, 0, 1, 1, |1, 1, 1, 0, 1, 0, |1, 1, 0, 1, 1, 1, |1, 1, 1, 1, 1, 1, |0, 0, 1, 1, 1, 1, |1, 1, 1, 1, 1, 1, |0, 1, 1, 0, 0, 1, |0, 1, 1, 1, 0, 0, |1, 1, 1, 1, 0, 1, |1, 1, 1, 1, 1, 1, |0, 1, 1, 0, 0, 1, |1, 1, 1, 1, 1, 1, |1, 1, 1, 1, 0, 1, |0, 0, 1, 1, 0, 1, |0, 0, 0, 1, 1, 1, |1, 1, 1, 1, 1, 1, |1, 1, 1, 1, 0, 0, |1, 1, 1, 1, 1, 1, |0, 1, 0, 1, 1, 0, |0, 1, 1, 1, 1, 1, |1, 0, 0, 1, 1, 1, |1, 0, 0, 1, 1, 1, |1, 1, 1, 0, 0, 1, |0, 1, 1, 1, 0, 0, |0, 1, 1, 1, 1, 1, |1, 1, 1, 1, 1, 1, |1, 0, 0, 1, 1, 1, |1, 1, 1, 1, 1, 1, |0, 1, 0, 0, 0, 0, |0, 0, 0, 1, 1, 1, |0, 1, 0, 0, 0, 1, |0, 1, 1, 1, 1, 1, |0, 0, 0, 1, 1, 1, |1, 0, 0, 0, 0, 0, |1, 0, 1, 1, 1, 1, |1, 1, 1, 1, 1, 0, |1, 1, 1, 1, 1, 1, |0, 1, 1, 1, 1, 1, |1, 0, 0, 1, 1, 1, |1, 1, 0, 1, 1, 1, |1, 1, 1, 1, 1, 1, |0, 0, 1, 1, 1, 1, |0, 1, 1, 0, 1, 1, |1, 1, 1, 1, 1, 1, |1, 1, 1, 1, 1, 1, |0, 0, 1, 1, 1, 1, |1, 1, 1, 1, 0, 0, |0, 0, 1, 0, 1, 1, |0, 0, 1, 1, 1, 1, |0, 1, 1, 1, 1, 1, |1, 1, 0, 1, 1, 1, |1, 1, 1, 1, 1, 1, |0, 0, 1, 1, 1, 0, |0, 1, 1, 1, 1, 1, |0, 0, 0, 0, 1, 1, |0, 1, 1, 1, 1, 1, |1, 1, 1, 1, 1, 1, |0, 0, 0, 1, 1, 1, |1, 1, 1, 1, 1, 1, |1, 1, 1, 1, 1, 1, |0, 1, 1, 1, 1, 1, |1, 1, 1, 0, 1, 1, |0, 0, 0, 0, 1, 1, |1, 1, 1, 1, 1, 1, |1, 1, 1, 1, 1, 1, |1, 1, 0, 1, 1, 1, |1, 1, 1, 1, 1, 1, |0, 1, 1, 1, 1, 1, |1, 0, 1, 0, 0, 1, |0, 0, 1, 1, 1, 1, |0, 1, 1, 1, 0, 0, |1, 0, 1, 1, 1, 1, |0, 1, 0, 0, 1, 1, |0, 1, 1, 1, 1, 1, |0, 0, 0, 0, 1, 1, |0, 1, 1, 1, 1, 1, |0, 1, 1, 1, 0, 0, |1, 1, 1, 1, 1, 1, |0, 0, 1, 1, 1, 0|];
StudentsProgramm = [1, 2, 1, 1, 1, 2, 2, 2, 1, 1];
StudentsDegree = [3, 1, 2, 3, 2, 3, 1, 3, 3, 2];
StudentsSupervisorId = [65, 94, 30, 11, 67, 63, 37, 78, 9, 36];
StudentsCourseIds = [{}, {}, {}, {}, {}, {}, {}, {}, {}, {}];
StudentsAvailability = [|1, 0, 1, 1, 1, 1, |1, 1, 1, 1, 1, 1, |1, 1, 0, 0, 0, 1, |0, 1, 1, 1, 1, 1, |1, 1, 1, 1, 1, 1, |0, 0, 1, 1, 1, 1, |1, 1, 0, 0, 0, 1, |1, 1, 1, 1, 1, 1, |1, 1, 1, 1, 1, 1, |0, 0, 0, 0, 0, 0|];
TheoryticalMinCard = [0, 0, 0, 0, 0, 0, 0, 1, 0, 0];
CoursesInstructorIds = [];
RolesDemands = [1, 15, 3];
RolesContinuity = [2, 3];
ExamLen = [1, 1, 1, 1, 1, 1, 1, 1, 1, 1];
LunchTsMinLen = 0;
LunchStarts = [6..8, 19..23];
SupervisorAvailable = 0;
OptimalLunchLenght = [3, 1];
OptimalStartTs = [2, 0];
OptimalFinishTs = [2, 15];
MinimizeRooms = 300;
RolesSoftContinuity = [|1, 2, 3|2, 2, 4|];
SameDegreeInRoom = 0;
Mergeability = 1;
